letting initialStacks = [47, 33, 42, 8, 51, 6, 20, 11, 48, 23, 30, 9, 22, 10, 45, 43, 16, 36, 29, 40, 50, 46, 12, 44, 25, 28, 5, 34, 35, 39, 17, 21, 2, 37, 7, 32, 49, 38, 19, 18, 14, 31, 41, 13, 4, 26, 3, 27, 1, 15, 24]
